NAME : LPS-n3-m323
COMMENT : (Lartu-Peter-Santi Plot, instance 323 out of 39200. 3 customers.)
TYPE : CVRP
DIMENSION : 3
EDGE_WEIGHT_TYPE : EUC_2D
CAPACITY : 97
NODE_COORD_SECTION
 1 55 1
 2 32 83
 3 0 76
DEMAND_SECTION
1 0
2 71
3 53
DEPOT_SECTION
 1
 -1
EOF
